Route #1: 18 10 39
Route #2: 52 91 50
Route #3: 63 77 3
Route #4: 66 84 90 68
Route #5: 71 62 99 98 89
Route #6: 44 67 88 40
Route #7: 86 9 92
Route #8: 57 72 36 29 43 45 2 7
Route #9: 27 97 19
Route #10: 59 60 82
Route #11: 93 75
Route #12: 20 41 22 15
Route #13: 38 47 26 48 96 64 34
Route #14: 4 13 74
Route #15: 8 17
Route #16: 28 42 78 65 25
Route #17: 32 33 53 73 95 24
Route #18: 30 85 11 79
Route #19: 54 70 1
Route #20: 69 16 55 76
Route #21: 80 94 56 21
Route #22: 5 12 58
Route #23: 87 37 6 49 14
Route #24: 35 46 31
Route #25: 83 51 81
Route #26: 23 61 100
Cost 27591.0000
Time 16.0007